(set-logic QF_S)
(declare-fun _var_0xINPUT_112084_() String)
(declare-fun __woorpje_diseq_pref0_() String)
(declare-fun __woorpje_diseq_suf_l0_() String)
(declare-fun __woorpje_diseq_suf_r0_() String)
(assert (=(str.++ _var_0xINPUT_112084_  "")(str.++ __woorpje_diseq_pref0_  "K" __woorpje_diseq_suf_l0_  "")) )
(assert (=(str.++  "JE2aUEKBUQ" "")(str.++ __woorpje_diseq_pref0_  "Q" __woorpje_diseq_suf_r0_  "")) )
(check-sat)
